NAME: PointSet_Angle_40_7
TYPE: TSP
COMMENT: Points chosen discrete uniformly at random out of ${0, \ldots, 500}^2$.
DIMENSION: 40
EDGE_WEIGHT_TYPE: EUC_2D
NODE_COORD_SECTION
1 93 325
2 412 466
3 279 466
4 236 274
5 428 247
6 234 275
7 155 487
8 116 439
9 176 347
10 303 428
11 458 487
12 332 106
13 490 458
14 349 110
15 81 227
16 180 421
17 298 91
18 132 76
19 303 368
20 96 230
21 114 330
22 4 269
23 62 368
24 455 486
25 214 3
26 413 418
27 490 491
28 23 225
29 194 373
30 81 21
31 346 261
32 443 143
33 98 74
34 466 402
35 189 308
36 131 49
37 137 383
38 319 447
39 250 19
40 432 210
EOF
